Traveling Salesman Problem/TSP_generados/Aleatorio1621103339_10.tsp
NAME: Aleatorio1621103339_10.tsp
COMMENT: Randomly generated scenario
TYPE: TSP
DIMENSION: 10
EDGE_WEIGHT_TYPE: ATT
NODE_COORD_SECTION
1 17.23 21.16
2 10.93 8.97
3 30.14 0.26
4 2.71 30.34
5 4.5 23.12
6 20.98 7.59
7 25.38 45.23
8 9.81 32.74
9 49.48 2.02
10 40.71 17.25
