Traveling Salesman Problem/TSP_generados/Aleatorio1621103339_10.opt.tour
NAME: Aleatorio1621103339_10.opt.tour
COMMENT: Optimal solution for Aleatorio1621103339_10 (152.27052509851796)
TYPE: TOUR
DIMENSION: 10
TOUR_SECTION
1 5 4 8 7 10 9 3 6 2
-1
EOF
